nN = 5;
nR = 30;
nH = 2;

a = [[16, 16, 13, 20, 22, 24, 15, 25, 18, 25, 11, 19, 20, 21, 17, 16, 16, 21, 17, 13, 13, 17, 14, 12, 24, 20, 15, 22, 15, 12], [14, 15, 19, 16, 22, 18, 13, 11, 21, 24, 14, 23, 21, 20, 13, 11, 25, 19, 21, 14, 18, 19, 15, 25, 23, 17, 19, 15, 13, 25], [25, 23, 19, 17, 11, 19, 16, 25, 11, 23, 15, 17, 21, 13, 18, 18, 22, 13, 20, 23, 24, 16, 24, 16, 23, 15, 10, 23, 23, 14], [11, 16, 12, 16, 13, 11, 18, 14, 21, 15, 11, 10, 20, 13, 13, 17, 17, 13, 17, 19, 20, 17, 14, 21, 23, 17, 19, 18, 22, 12], [18, 11, 24, 18, 13, 14, 14, 14, 21, 19, 20, 25, 22, 18, 24, 23, 21, 17, 23, 23, 17, 20, 23, 24, 19, 15, 15, 14, 24, 15]];
c = [[[0, 0, 0, 0, 0, 0, 0, 0, 0, 0, 0, 0, 0, 0, 0, 0, 0, 0, 0, 0, 0, 0, 0, 0, 0, 0, 0, 0, 0, 0], [33, 33, 46, 42, 47, 42, 30, 31, 34, 31, 43, 35, 39, 45, 45, 47, 47, 49, 44, 34, 41, 44, 35, 46, 40, 42, 33, 43, 49, 39], [44, 33, 44, 47, 43, 43, 38, 38, 39, 44, 31, 35, 50, 40, 40, 39, 43, 43, 44, 47, 38, 34, 30, 48, 40, 48, 36, 38, 38, 45], [32, 41, 40, 38, 43, 30, 34, 38, 48, 39, 38, 31, 45, 50, 33, 39, 38, 32, 36, 38, 45, 30, 46, 31, 42, 35, 47, 38, 46, 30], [42, 42, 38, 36, 34, 39, 42, 41, 50, 36, 38, 34, 36, 41, 47, 47, 37, 38, 31, 36, 39, 36, 36, 48, 41, 30, 36, 33, 35, 47]], [[0, 0, 0, 0, 0, 0, 0, 0, 0, 0, 0, 0, 0, 0, 0, 0, 0, 0, 0, 0, 0, 0, 0, 0, 0, 0, 0, 0, 0, 0], [0, 0, 0, 0, 0, 0, 0, 0, 0, 0, 0, 0, 0, 0, 0, 0, 0, 0, 0, 0, 0, 0, 0, 0, 0, 0, 0, 0, 0, 0], [46, 39, 31, 34, 50, 38, 44, 45, 30, 43, 49, 44, 32, 47, 31, 35, 41, 32, 33, 37, 40, 31, 39, 34, 50, 48, 39, 43, 31, 34], [49, 42, 41, 46, 41, 30, 32, 49, 35, 32, 48, 34, 41, 46, 33, 39, 41, 31, 46, 31, 45, 46, 44, 30, 31, 37, 30, 40, 47, 37], [38, 45, 31, 40, 37, 33, 41, 41, 42, 39, 43, 49, 45, 30, 38, 43, 45, 46, 40, 39, 37, 45, 32, 33, 34, 50, 43, 46, 34, 35]], [[0, 0, 0, 0, 0, 0, 0, 0, 0, 0, 0, 0, 0, 0, 0, 0, 0, 0, 0, 0, 0, 0, 0, 0, 0, 0, 0, 0, 0, 0], [0, 0, 0, 0, 0, 0, 0, 0, 0, 0, 0, 0, 0, 0, 0, 0, 0, 0, 0, 0, 0, 0, 0, 0, 0, 0, 0, 0, 0, 0], [0, 0, 0, 0, 0, 0, 0, 0, 0, 0, 0, 0, 0, 0, 0, 0, 0, 0, 0, 0, 0, 0, 0, 0, 0, 0, 0, 0, 0, 0], [33, 37, 45, 35, 31, 31, 37, 38, 34, 50, 49, 35, 48, 35, 44, 40, 39, 47, 49, 43, 30, 37, 48, 49, 42, 45, 38, 41, 41, 44], [50, 43, 44, 40, 47, 34, 44, 43, 46, 50, 31, 45, 38, 36, 36, 38, 33, 50, 46, 38, 49, 44, 41, 43, 34, 30, 36, 36, 34, 46]], [[0, 0, 0, 0, 0, 0, 0, 0, 0, 0, 0, 0, 0, 0, 0, 0, 0, 0, 0, 0, 0, 0, 0, 0, 0, 0, 0, 0, 0, 0], [0, 0, 0, 0, 0, 0, 0, 0, 0, 0, 0, 0, 0, 0, 0, 0, 0, 0, 0, 0, 0, 0, 0, 0, 0, 0, 0, 0, 0, 0], [0, 0, 0, 0, 0, 0, 0, 0, 0, 0, 0, 0, 0, 0, 0, 0, 0, 0, 0, 0, 0, 0, 0, 0, 0, 0, 0, 0, 0, 0], [0, 0, 0, 0, 0, 0, 0, 0, 0, 0, 0, 0, 0, 0, 0, 0, 0, 0, 0, 0, 0, 0, 0, 0, 0, 0, 0, 0, 0, 0], [48, 38, 43, 39, 50, 31, 41, 49, 39, 46, 41, 46, 42, 48, 50, 40, 40, 49, 49, 39, 46, 35, 49, 42, 50, 42, 43, 31, 33, 46]], [[0, 0, 0, 0, 0, 0, 0, 0, 0, 0, 0, 0, 0, 0, 0, 0, 0, 0, 0, 0, 0, 0, 0, 0, 0, 0, 0, 0, 0, 0], [0, 0, 0, 0, 0, 0, 0, 0, 0, 0, 0, 0, 0, 0, 0, 0, 0, 0, 0, 0, 0, 0, 0, 0, 0, 0, 0, 0, 0, 0], [0, 0, 0, 0, 0, 0, 0, 0, 0, 0, 0, 0, 0, 0, 0, 0, 0, 0, 0, 0, 0, 0, 0, 0, 0, 0, 0, 0, 0, 0], [0, 0, 0, 0, 0, 0, 0, 0, 0, 0, 0, 0, 0, 0, 0, 0, 0, 0, 0, 0, 0, 0, 0, 0, 0, 0, 0, 0, 0, 0], [0, 0, 0, 0, 0, 0, 0, 0, 0, 0, 0, 0, 0, 0, 0, 0, 0, 0, 0, 0, 0, 0, 0, 0, 0, 0, 0, 0, 0, 0]]];

q = [[[7, 113], [10, 124], [9, 108], [13, 122], [22, 105], [18, 122], [19, 115], [17, 121], [18, 125], [15, 125], [5, 109], [9, 125], [11, 119], [18, 105], [21, 122], [20, 117], [19, 106], [21, 110], [21, 111], [7, 123], [23, 116], [24, 109], [15, 119], [14, 120], [18, 110], [10, 109], [19, 108], [5, 123], [22, 125], [13, 124]], [[24, 108], [25, 121], [12, 111], [24, 108], [15, 118], [21, 121], [20, 107], [14, 119], [25, 113], [13, 116], [14, 117], [6, 118], [16, 111], [21, 107], [7, 123], [24, 117], [7, 125], [14, 105], [7, 117], [18, 107], [13, 116], [24, 117], [22, 118], [20, 110], [10, 110], [21, 123], [20, 121], [11, 109], [10, 124], [24, 123]], [[12, 105], [13, 112], [7, 113], [13, 107], [16, 107], [7, 120], [14, 110], [25, 113], [23, 121], [18, 111], [10, 115], [14, 119], [16, 118], [24, 114], [24, 109], [16, 109], [15, 119], [12, 119], [13, 115], [7, 109], [18, 117], [16, 122], [19, 121], [12, 116], [13, 109], [22, 111], [24, 114], [17, 115], [12, 107], [19, 121]], [[19, 106], [5, 122], [7, 121], [15, 111], [16, 107], [9, 116], [18, 125], [6, 109], [7, 107], [22, 110], [8, 123], [10, 121], [14, 123], [5, 120], [9, 113], [20, 116], [6, 114], [11, 116], [9, 105], [5, 120], [6, 105], [20, 110], [25, 110], [17, 106], [19, 105], [11, 111], [15, 123], [18, 105], [24, 110], [7, 109]], [[10, 112], [15, 108], [13, 105], [24, 125], [11, 120], [13, 108], [17, 111], [6, 124], [9, 123], [19, 118], [21, 121], [21, 111], [12, 117], [14, 125], [18, 115], [8, 120], [17, 113], [24, 123], [8, 117], [20, 107], [15, 111], [18, 118], [25, 113], [19, 122], [7, 114], [16, 122], [15, 108], [15, 123], [6, 121], [11, 109]]];
Q = [[76, 559], [80, 554], [75, 547], [62, 544], [72, 558]];
